NAME : PR299B
TYPE : PDTSP
DIMENSION : 299
EDGE_WEIGHT_TYPE : EUC_2D
NODE_COORD_SECTION
1 2200 1600
2 2500 1600
3 2400 1600
4 2300 1600
5 2700 1600
6 2600 1600
7 3000 1700
8 3300 1600
9 3400 1600
10 3500 1600
11 3600 1600
12 3700 1600
13 3900 1600
14 3900 1800
15 4300 1600
16 4300 1700
17 4400 1700
18 4500 1700
19 4400 1800
20 4600 1800
21 4600 1600
22 4800 1700
23 4700 1600
24 4900 1600
25 5000 1600
26 5200 1600
27 5300 1600
28 5500 1600
29 5600 1600
30 6400 1600
31 6500 1600
32 6700 1600
33 6700 1700
34 6500 1700
35 6900 1600
36 7100 1600
37 7300 1600
38 7300 1600
39 7600 1800
40 7400 1600
41 7600 1600
42 7400 1600
43 7600 1600
44 7800 1700
45 7700 1600
46 7700 1600
47 7900 1600
48 8000 1600
49 8100 1600
50 8200 1600
51 8300 1600
52 8400 1600
53 8500 1600
54 8800 1600
55 8800 1900
56 8800 1800
57 7700 1800
58 7700 2000
59 7500 2000
60 7600 1900
61 7600 2100
62 7100 2000
63 6800 1900
64 6800 2100
65 7000 2100
66 6700 1900
67 6200 2000
68 6400 2100
69 6000 2000
70 6000 2100
71 5700 1800
72 5300 1800
73 5400 1800
74 5500 1800
75 5000 1800
76 5000 2000
77 5100 1900
78 5100 2100
79 4800 1900
80 4900 1900
81 4700 2000
82 4800 2000
83 4400 2000
84 4500 2000
85 4200 2000
86 4100 2000
87 4300 2000
88 3900 1900
89 3900 2100
90 4000 2000
91 4000 2100
92 2900 1900
93 2900 2200
94 4200 2200
95 4300 2200
96 4300 2200
97 4300 2300
98 4400 2200
99 4500 2200
100 4600 2200
101 4600 2300
102 4800 2100
103 5200 2300
104 5400 2400
105 6800 2200
106 7300 2300
107 7100 2200
108 7400 2300
109 7500 2400
110 7500 2200
111 7800 2300
112 7800 2200
113 7900 2300
114 8800 2200
115 8700 2400
116 8700 2200
117 8800 2400
118 8600 2500
119 8700 2500
120 8600 2600
121 8400 2600
122 8500 2600
123 8000 2500
124 8200 2500
125 8200 2600
126 8100 2600
127 8000 2600
128 7800 2700
129 5300 2400
130 5400 2500
131 5400 2700
132 5300 2400
133 5200 2500
134 5200 2700
135 5100 2600
136 5000 2500
137 5000 2700
138 4900 2700
139 4200 2400
140 4200 2600
141 3900 2500
142 3700 2500
143 3300 2500
144 2900 2400
145 2600 2500
146 2700 2500
147 2300 2500
148 2400 2500
149 2200 2500
150 2100 2800
151 2200 2800
152 2400 2800
153 2500 2800
154 2600 2800
155 2700 2800
156 2900 2900
157 3300 2900
158 3700 2900
159 3900 2900
160 4200 2900
161 4200 2700
162 5000 2800
163 5100 2800
164 5200 2900
165 5400 2800
166 5400 2900
167 6100 2900
168 6000 2900
169 7600 2900
170 7400 2900
171 7900 2900
172 7900 2800
173 7800 2900
174 7800 2800
175 8100 2800
176 8100 2900
177 8000 2800
178 8100 3000
179 8000 3000
180 8800 2800
181 8800 2900
182 8800 3000
183 8800 3100
184 8800 3300
185 8600 3200
186 8500 3200
187 8100 3100
188 8000 3300
189 8000 3100
190 7800 3100
191 7600 3100
192 7600 3200
193 7400 3300
194 7400 3100
195 7400 3000
196 7300 3200
197 6100 3000
198 6000 3200
199 5400 3300
200 5300 3300
201 5400 3000
202 5200 3200
203 5100 3300
204 4500 3200
205 4600 3100
206 4600 3000
207 4400 3200
208 4300 3200
209 4200 3200
210 4300 3100
211 4300 3000
212 4000 3300
213 3900 3300
214 2900 3200
215 2900 3500
216 3900 3500
217 3800 3500
218 4000 3400
219 4300 3600
220 4300 3300
221 4200 3400
222 4100 3300
223 4500 3300
224 4400 3300
225 4700 3500
226 4700 3400
227 4800 3400
228 5200 3300
229 5000 3300
230 5200 3500
231 5000 3500
232 5400 3500
233 5300 3500
234 6100 3400
235 5900 3600
236 6400 3400
237 6700 3300
238 6600 3500
239 7000 3500
240 6900 3300
241 6800 3400
242 7200 3300
243 7200 3500
244 7600 3500
245 7600 3400
246 7500 3500
247 7400 3400
248 7800 3500
249 7700 3500
250 7800 3400
251 7700 3400
252 8200 3400
253 8200 3300
254 8500 3500
255 8300 3500
256 8600 3300
257 8800 3700
258 8700 3800
259 8600 3700
260 8400 3600
261 8300 3600
262 8400 3800
263 8200 3600
264 8200 3800
265 8100 3800
266 8100 3700
267 7900 3800
268 7900 3700
269 7100 3700
270 7200 3800
271 7000 3700
272 6600 3800
273 6400 3800
274 6000 3800
275 5300 3800
276 5300 3700
277 5400 3700
278 5100 3800
279 5200 3800
280 4700 3700
281 4900 3800
282 4900 3700
283 4800 3700
284 4600 3700
285 4400 3700
286 4300 3700
287 3800 3700
288 3600 3800
289 3500 3800
290 3200 3800
291 3300 3800
292 3100 3700
293 2900 3700
294 2600 3700
295 2700 3700
296 2300 3700
297 2400 3700
298 2200 3700
299 4800 3200
PICKUP_AND_DELIVERY_SECTION
1 0 0 0 0 0 0
2 0 0 0 0 96 0
3 0 0 0 0 0 147
4 0 0 0 0 150 0
5 0 0 0 0 155 0
6 0 0 0 0 146 0
7 0 0 0 0 92 0
8 0 0 0 0 16 0
9 0 0 0 0 93 0
10 0 0 0 0 85 0
11 0 0 0 0 23 0
12 0 0 0 0 91 0
13 0 0 0 0 211 0
14 0 0 0 0 0 89
15 0 0 0 0 0 81
16 0 0 0 0 0 8
17 0 0 0 0 0 141
18 0 0 0 0 19 0
19 0 0 0 0 0 18
20 0 0 0 0 0 83
21 0 0 0 0 0 99
22 0 0 0 0 0 27
23 0 0 0 0 0 11
24 0 0 0 0 77 0
25 0 0 0 0 206 0
26 0 0 0 0 0 29
27 0 0 0 0 22 0
28 0 0 0 0 0 72
29 0 0 0 0 26 0
30 0 0 0 0 33 0
31 0 0 0 0 0 257
32 0 0 0 0 64 0
33 0 0 0 0 0 30
34 0 0 0 0 0 66
35 0 0 0 0 62 0
36 0 0 0 0 43 0
37 0 0 0 0 67 0
38 0 0 0 0 0 46
39 0 0 0 0 0 156
40 0 0 0 0 0 114
41 0 0 0 0 0 122
42 0 0 0 0 50 0
43 0 0 0 0 0 36
44 0 0 0 0 0 47
45 0 0 0 0 0 58
46 0 0 0 0 38 0
47 0 0 0 0 44 0
48 0 0 0 0 112 0
49 0 0 0 0 53 0
50 0 0 0 0 0 42
51 0 0 0 0 0 252
52 0 0 0 0 54 0
53 0 0 0 0 0 49
54 0 0 0 0 0 52
55 0 0 0 0 0 116
56 0 0 0 0 0 115
57 0 0 0 0 0 60
58 0 0 0 0 45 0
59 0 0 0 0 61 0
60 0 0 0 0 57 0
61 0 0 0 0 0 59
62 0 0 0 0 0 35
63 0 0 0 0 195 0
64 0 0 0 0 0 32
65 0 0 0 0 105 0
66 0 0 0 0 34 0
67 0 0 0 0 0 37
68 0 0 0 0 0 272
69 0 0 0 0 201 0
70 0 0 0 0 0 104
71 0 0 0 0 0 235
72 0 0 0 0 28 0
73 0 0 0 0 132 0
74 0 0 0 0 103 0
75 0 0 0 0 136 0
76 0 0 0 0 84 0
77 0 0 0 0 0 24
78 0 0 0 0 102 0
79 0 0 0 0 0 80
80 0 0 0 0 79 0
81 0 0 0 0 15 0
82 0 0 0 0 0 232
83 0 0 0 0 20 0
84 0 0 0 0 0 76
85 0 0 0 0 0 10
86 0 0 0 0 0 149
87 0 0 0 0 0 101
88 0 0 0 0 161 0
89 0 0 0 0 14 0
90 0 0 0 0 0 94
91 0 0 0 0 0 12
92 0 0 0 0 0 7
93 0 0 0 0 0 9
94 0 0 0 0 90 0
95 0 0 0 0 0 140
96 0 0 0 0 0 2
97 0 0 0 0 100 0
98 0 0 0 0 0 139
99 0 0 0 0 21 0
100 0 0 0 0 0 97
101 0 0 0 0 87 0
102 0 0 0 0 0 78
103 0 0 0 0 0 74
104 0 0 0 0 70 0
105 0 0 0 0 0 65
106 0 0 0 0 110 0
107 0 0 0 0 169 0
108 0 0 0 0 0 123
109 0 0 0 0 111 0
110 0 0 0 0 0 106
111 0 0 0 0 0 109
112 0 0 0 0 0 48
113 0 0 0 0 172 0
114 0 0 0 0 40 0
115 0 0 0 0 56 0
116 0 0 0 0 55 0
117 0 0 0 0 0 124
118 0 0 0 0 126 0
119 0 0 0 0 0 120
120 0 0 0 0 119 0
121 0 0 0 0 178 0
122 0 0 0 0 41 0
123 0 0 0 0 108 0
124 0 0 0 0 117 0
125 0 0 0 0 127 0
126 0 0 0 0 0 118
127 0 0 0 0 0 125
128 0 0 0 0 174 0
129 0 0 0 0 134 0
130 0 0 0 0 0 151
131 0 0 0 0 0 166
132 0 0 0 0 0 73
133 0 0 0 0 0 164
134 0 0 0 0 0 129
135 0 0 0 0 0 138
136 0 0 0 0 0 75
137 0 0 0 0 0 200
138 0 0 0 0 135 0
139 0 0 0 0 98 0
140 0 0 0 0 95 0
141 0 0 0 0 17 0
142 0 0 0 0 143 0
143 0 0 0 0 0 142
144 0 0 0 0 0 145
145 0 0 0 0 144 0
146 0 0 0 0 0 6
147 0 0 0 0 3 0
148 0 0 0 0 153 0
149 0 0 0 0 86 0
150 0 0 0 0 0 4
151 0 0 0 0 130 0
152 0 0 0 0 154 0
153 0 0 0 0 0 148
154 0 0 0 0 0 152
155 0 0 0 0 0 5
156 0 0 0 0 39 0
157 0 0 0 0 0 158
158 0 0 0 0 157 0
159 0 0 0 0 0 288
160 0 0 0 0 0 287
161 0 0 0 0 0 88
162 0 0 0 0 163 0
163 0 0 0 0 0 162
164 0 0 0 0 133 0
165 0 0 0 0 0 168
166 0 0 0 0 131 0
167 0 0 0 0 197 0
168 0 0 0 0 165 0
169 0 0 0 0 0 107
170 0 0 0 0 171 0
171 0 0 0 0 0 170
172 0 0 0 0 0 113
173 0 0 0 0 0 249
174 0 0 0 0 0 128
175 0 0 0 0 0 179
176 0 0 0 0 177 0
177 0 0 0 0 0 176
178 0 0 0 0 0 121
179 0 0 0 0 175 0
180 0 0 0 0 181 0
181 0 0 0 0 0 180
182 0 0 0 0 183 0
183 0 0 0 0 0 182
184 0 0 0 0 243 0
185 0 0 0 0 0 186
186 0 0 0 0 185 0
187 0 0 0 0 190 0
188 0 0 0 0 0 255
189 0 0 0 0 253 0
190 0 0 0 0 0 187
191 0 0 0 0 251 0
192 0 0 0 0 0 270
193 0 0 0 0 242 0
194 0 0 0 0 250 0
195 0 0 0 0 0 63
196 0 0 0 0 0 241
197 0 0 0 0 0 167
198 0 0 0 0 280 0
199 0 0 0 0 278 0
200 0 0 0 0 137 0
201 0 0 0 0 0 69
202 0 0 0 0 0 228
203 0 0 0 0 0 295
204 0 0 0 0 299 0
205 0 0 0 0 224 0
206 0 0 0 0 0 25
207 0 0 0 0 0 220
208 0 0 0 0 0 226
209 0 0 0 0 0 223
210 0 0 0 0 284 0
211 0 0 0 0 0 13
212 0 0 0 0 286 0
213 0 0 0 0 218 0
214 0 0 0 0 0 290
215 0 0 0 0 296 0
216 0 0 0 0 0 222
217 0 0 0 0 0 292
218 0 0 0 0 0 213
219 0 0 0 0 285 0
220 0 0 0 0 207 0
221 0 0 0 0 0 229
222 0 0 0 0 216 0
223 0 0 0 0 209 0
224 0 0 0 0 0 205
225 0 0 0 0 0 231
226 0 0 0 0 208 0
227 0 0 0 0 282 0
228 0 0 0 0 202 0
229 0 0 0 0 221 0
230 0 0 0 0 0 275
231 0 0 0 0 225 0
232 0 0 0 0 82 0
233 0 0 0 0 0 277
234 0 0 0 0 0 273
235 0 0 0 0 71 0
236 0 0 0 0 239 0
237 0 0 0 0 271 0
238 0 0 0 0 274 0
239 0 0 0 0 0 236
240 0 0 0 0 245 0
241 0 0 0 0 196 0
242 0 0 0 0 0 193
243 0 0 0 0 0 184
244 0 0 0 0 0 246
245 0 0 0 0 0 240
246 0 0 0 0 244 0
247 0 0 0 0 0 269
248 0 0 0 0 0 260
249 0 0 0 0 173 0
250 0 0 0 0 0 194
251 0 0 0 0 0 191
252 0 0 0 0 51 0
253 0 0 0 0 0 189
254 0 0 0 0 0 266
255 0 0 0 0 188 0
256 0 0 0 0 0 258
257 0 0 0 0 31 0
258 0 0 0 0 256 0
259 0 0 0 0 0 262
260 0 0 0 0 248 0
261 0 0 0 0 0 267
262 0 0 0 0 259 0
263 0 0 0 0 0 264
264 0 0 0 0 263 0
265 0 0 0 0 268 0
266 0 0 0 0 254 0
267 0 0 0 0 261 0
268 0 0 0 0 0 265
269 0 0 0 0 247 0
270 0 0 0 0 192 0
271 0 0 0 0 0 237
272 0 0 0 0 68 0
273 0 0 0 0 234 0
274 0 0 0 0 0 238
275 0 0 0 0 230 0
276 0 0 0 0 0 283
277 0 0 0 0 233 0
278 0 0 0 0 0 199
279 0 0 0 0 281 0
280 0 0 0 0 0 198
281 0 0 0 0 0 279
282 0 0 0 0 0 227
283 0 0 0 0 276 0
284 0 0 0 0 0 210
285 0 0 0 0 0 219
286 0 0 0 0 0 212
287 0 0 0 0 160 0
288 0 0 0 0 159 0
289 0 0 0 0 0 298
290 0 0 0 0 214 0
291 0 0 0 0 294 0
292 0 0 0 0 217 0
293 0 0 0 0 297 0
294 0 0 0 0 0 291
295 0 0 0 0 203 0
296 0 0 0 0 0 215
297 0 0 0 0 0 293
298 0 0 0 0 289 0
299 0 0 0 0 0 204
DEPOT_SECTION
1 
-1
EOF
